5 5
3 56 1 39 0 63 4 7 2 58
0 80 4 59 2 48 1 5 3 87
1 36 2 96 3 88 0 25 4 45
0 92 1 19 2 7 3 58 4 81
4 66 0 80 2 39 1 18 3 1
-1
0 1 2 4 5
0 1 3 4 5
0 1 2 4 5
0 1 4 5
0 2 5
-2
89 105 219 239
82 246 254 423
49 164 387 370
141 195 352
233 323

385 9
15 5 21 2 13
10 1 16 8 23
11 17 7 22 4
0 18 12 9 24
20 6 19 3 14
